(set-info :smt-lib-version 2.6)
(set-logic UF)
(set-info :source |Benchmarks from the paper: "Extending Sledgehammer with SMT Solvers" by Jasmin Blanchette, Sascha Bohme, and Lawrence C. Paulson, CADE 2011.  Translated to SMT2 by Andrew Reynolds and Morgan Deters.|)
(set-info :category "industrial")
(set-info :status unknown)
(declare-sort S1 0)
(declare-sort S2 0)
(declare-sort S3 0)
(declare-sort S4 0)
(declare-sort S5 0)
(declare-sort S6 0)
(declare-sort S7 0)
(declare-sort S8 0)
(declare-sort S9 0)
(declare-sort S10 0)
(declare-sort S11 0)
(declare-sort S12 0)
(declare-sort S13 0)
(declare-sort S14 0)
(declare-fun f1 () S1)
(declare-fun f2 () S1)
(declare-fun f3 () S1)
(declare-fun f4 (S3 S2) S2)
(declare-fun f5 (S4 S2) S3)
(declare-fun f6 () S4)
(declare-fun f7 () S2)
(declare-fun f8 () S4)
(declare-fun f9 () S4)
(declare-fun f10 () S2)
(declare-fun f11 (S5 S6) S2)
(declare-fun f12 () S5)
(declare-fun f13 () S6)
(declare-fun f14 (S7 S2) S1)
(declare-fun f15 (S8 S2) S7)
(declare-fun f16 () S8)
(declare-fun f17 () S3)
(declare-fun f18 () S3)
(declare-fun f19 () S3)
(declare-fun f20 () S2)
(declare-fun f21 () S3)
(declare-fun f22 () S8)
(declare-fun f23 () S2)
(declare-fun f24 () S2)
(declare-fun f25 () S2)
(declare-fun f26 () S2)
(declare-fun f27 () S2)
(declare-fun f28 (S9 S6) S6)
(declare-fun f29 (S10 S6) S9)
(declare-fun f30 () S10)
(declare-fun f31 () S6)
(declare-fun f32 (S11 S2) S6)
(declare-fun f33 () S11)
(declare-fun f34 () S10)
(declare-fun f35 (S12 S6) S1)
(declare-fun f36 (S13 S6) S12)
(declare-fun f37 () S13)
(declare-fun f38 () S13)
(declare-fun f39 () S6)
(declare-fun f40 () S9)
(declare-fun f41 () S2)
(declare-fun f42 () S7)
(declare-fun f43 () S7)
(declare-fun f44 (S14 S2) S5)
(declare-fun f45 () S14)
(declare-fun f46 () S10)
(assert (not (= f1 f2)))
(assert (not (= f3 f1)))
(assert (forall ((?v0 S2) (?v1 S2)) (let ((?v_0 (f4 (f5 f9 f10) (f11 f12 f13)))) (=> (and (= ?v0 (f4 (f5 f6 f7) (f4 (f5 f8 ?v1) ?v_0))) (= (f14 (f15 f16 (f4 (f5 f8 (f4 f17 (f4 f18 (f4 f19 f20)))) (f4 f21 ?v0))) ?v_0) f1)) (= f3 f1)))))
(assert (= (f14 (f15 f22 f23) (f4 (f5 f9 f10) (f11 f12 f13))) f1))
(assert (= (f14 (f15 f22 f23) (f4 (f5 f9 f10) (f11 f12 f13))) f1))
(assert (= (f14 (f15 f22 f10) f24) f1))
(assert (let ((?v_0 (f4 (f5 f9 f10) (f11 f12 f13)))) (and (= f25 (f4 (f5 f6 f26) (f4 (f5 f8 f27) ?v_0))) (= (f14 (f15 f16 (f4 (f5 f8 (f4 f17 (f4 f18 (f4 f19 f20)))) (f4 f21 f25))) ?v_0) f1))))
(assert (=> (forall ((?v0 S2) (?v1 S2)) (let ((?v_0 (f4 (f5 f9 f10) (f11 f12 f13)))) (=> (and (= ?v1 (f4 (f5 f6 f26) (f4 (f5 f8 ?v0) ?v_0))) (= (f14 (f15 f16 (f4 (f5 f8 (f4 f17 (f4 f18 (f4 f19 f20)))) (f4 f21 ?v1))) ?v_0) f1)) false))) false))
(assert (forall ((?v0 S2)) (= (f4 (f5 f9 f10) (f4 f17 ?v0)) (f4 f17 (f4 (f5 f9 (f4 f19 f20)) ?v0)))))
(assert (forall ((?v0 S2)) (= (f4 (f5 f9 (f4 f17 ?v0)) f10) (f4 f17 (f4 (f5 f9 ?v0) (f4 f19 f20))))))
(assert (forall ((?v0 S2)) (= (= (f14 (f15 f16 f10) (f4 f17 ?v0)) f1) (= (f14 (f15 f16 (f4 f19 f20)) ?v0) f1))))
(assert (forall ((?v0 S2)) (= (= (f14 (f15 f16 (f4 f17 ?v0)) f10) f1) (= (f14 (f15 f16 ?v0) (f4 f19 f20)) f1))))
(assert (= (f4 (f5 f9 f10) f10) (f4 f17 (f4 f18 (f4 f19 f20)))))
(assert (= (f4 (f5 f9 f10) f10) (f4 f17 (f4 f18 (f4 f19 f20)))))
(assert (= (f28 (f29 f30 f31) f31) (f32 f33 (f4 f18 (f4 f19 f20)))))
(assert (forall ((?v0 S2)) (= (f4 (f5 f8 ?v0) (f4 f17 (f4 f18 (f4 f19 f20)))) (f4 (f5 f9 ?v0) ?v0))))
(assert (forall ((?v0 S2)) (= (f4 (f5 f8 ?v0) (f4 f17 (f4 f18 (f4 f19 f20)))) (f4 (f5 f9 ?v0) ?v0))))
(assert (forall ((?v0 S6)) (= (f28 (f29 f34 ?v0) (f32 f33 (f4 f18 (f4 f19 f20)))) (f28 (f29 f30 ?v0) ?v0))))
(assert (forall ((?v0 S2)) (= (f4 (f5 f8 (f4 f17 (f4 f18 (f4 f19 f20)))) ?v0) (f4 (f5 f9 ?v0) ?v0))))
(assert (forall ((?v0 S2)) (= (f4 (f5 f8 (f4 f17 (f4 f18 (f4 f19 f20)))) ?v0) (f4 (f5 f9 ?v0) ?v0))))
(assert (forall ((?v0 S6)) (= (f28 (f29 f34 (f32 f33 (f4 f18 (f4 f19 f20)))) ?v0) (f28 (f29 f30 ?v0) ?v0))))
(assert (forall ((?v0 S2) (?v1 S2)) (let ((?v_0 (f15 f16 f20))) (=> (= (f14 ?v_0 ?v0) f1) (=> (= (f14 ?v_0 ?v1) f1) (= (f4 (f5 f9 (f4 f17 ?v0)) (f4 f17 ?v1)) (f4 f17 (f4 (f5 f9 ?v0) ?v1))))))))
(assert (forall ((?v0 S2) (?v1 S2)) (let ((?v_0 (f15 f16 f20))) (=> (= (f14 ?v_0 ?v0) f1) (=> (= (f14 ?v_0 ?v1) f1) (= (f28 (f29 f30 (f32 f33 ?v0)) (f32 f33 ?v1)) (f32 f33 (f4 (f5 f9 ?v0) ?v1))))))))
(assert (= (f14 (f15 f16 f10) f24) f1))
(assert (forall ((?v0 S2) (?v1 S2)) (or (= (f14 (f15 f22 ?v0) ?v1) f1) (or (= ?v0 ?v1) (= (f14 (f15 f22 ?v1) ?v0) f1)))))
(assert (forall ((?v0 S2) (?v1 S2)) (let ((?v_1 (f32 f33 ?v0)) (?v_0 (f32 f33 ?v1))) (= (f28 (f29 f30 ?v_1) ?v_0) (ite (= (f14 (f15 f22 ?v0) f20) f1) ?v_0 (ite (= (f14 (f15 f22 ?v1) f20) f1) ?v_1 (f32 f33 (f4 (f5 f9 ?v0) ?v1))))))))
(assert (= (f32 f33 (f4 f19 f20)) f31))
(assert (= f31 (f32 f33 (f4 f19 f20))))
(assert (forall ((?v0 S2) (?v1 S2)) (let ((?v_0 (f15 f16 ?v0))) (= (= (f35 (f36 f37 (f32 f33 ?v0)) (f32 f33 ?v1)) f1) (ite (= (f14 ?v_0 ?v1) f1) true (= (f14 ?v_0 f20) f1))))))
(assert (forall ((?v0 S6)) (= (f28 (f29 f34 (f32 f33 (f4 f18 (f4 f19 f20)))) ?v0) (f28 (f29 f30 ?v0) ?v0))))
(assert (forall ((?v0 S6)) (= (f28 (f29 f34 ?v0) (f32 f33 (f4 f18 (f4 f19 f20)))) (f28 (f29 f30 ?v0) ?v0))))
(assert (= (f28 (f29 f30 f31) f31) (f32 f33 (f4 f18 (f4 f19 f20)))))
(assert (forall ((?v0 S2) (?v1 S2)) (= (= (f14 (f15 f22 (f4 f17 ?v0)) (f4 f17 ?v1)) f1) (= (f14 (f15 f22 ?v0) ?v1) f1))))
(assert (forall ((?v0 S2)) (= (= (f14 (f15 f22 (f4 (f5 f9 ?v0) ?v0)) f23) f1) (= (f14 (f15 f22 ?v0) f23) f1))))
(assert (forall ((?v0 S2)) (= (= (f14 (f15 f22 (f4 f19 ?v0)) f23) f1) (= (f14 (f15 f22 ?v0) f23) f1))))
(assert (= (= (f14 (f15 f22 f20) f23) f1) false))
(assert (forall ((?v0 S2)) (= (= (f14 (f15 f22 (f4 f18 ?v0)) f23) f1) (= (f14 (f15 f22 ?v0) f23) f1))))
(assert (= (f14 (f15 f22 f23) f10) f1))
(assert (forall ((?v0 S2) (?v1 S2) (?v2 S2)) (let ((?v_0 (f5 f8 ?v2))) (=> (= (f14 (f15 f22 ?v0) ?v1) f1) (=> (= (f14 (f15 f22 f23) ?v2) f1) (= (f14 (f15 f22 (f4 ?v_0 ?v0)) (f4 ?v_0 ?v1)) f1))))))
(assert (forall ((?v0 S2) (?v1 S2)) (= (= (f14 (f15 f22 ?v0) ?v1) f1) (= (f14 (f15 f22 (f4 (f5 f6 ?v0) ?v1)) f23) f1))))
(assert (forall ((?v0 S6)) (not (= (f14 (f15 f22 (f11 f12 ?v0)) f23) f1))))
(assert (forall ((?v0 S6) (?v1 S6) (?v2 S2)) (= (f4 (f5 f9 (f11 f12 ?v0)) (f4 (f5 f9 (f11 f12 ?v1)) ?v2)) (f4 (f5 f9 (f11 f12 (f28 (f29 f30 ?v0) ?v1))) ?v2))))
(assert (forall ((?v0 S6) (?v1 S6)) (= (f4 (f5 f9 (f11 f12 ?v0)) (f11 f12 ?v1)) (f11 f12 (f28 (f29 f30 ?v0) ?v1)))))
(assert (forall ((?v0 S6) (?v1 S6)) (= (f4 (f5 f8 (f11 f12 ?v0)) (f11 f12 ?v1)) (f11 f12 (f28 (f29 f34 ?v0) ?v1)))))
(assert (forall ((?v0 S6) (?v1 S6)) (= (f11 f12 (f28 (f29 f34 ?v0) ?v1)) (f4 (f5 f8 (f11 f12 ?v0)) (f11 f12 ?v1)))))
(assert (forall ((?v0 S6) (?v1 S6)) (= (= (f14 (f15 f16 (f11 f12 ?v0)) (f11 f12 ?v1)) f1) (= (f35 (f36 f37 ?v0) ?v1) f1))))
(assert (= (f11 f12 f31) f10))
(assert (forall ((?v0 S2)) (= (= (f4 (f5 f9 ?v0) ?v0) f23) (= ?v0 f23))))
(assert (forall ((?v0 S2) (?v1 S2)) (= (= (f14 (f15 f22 (f4 f19 ?v0)) (f4 f19 ?v1)) f1) (= (f14 (f15 f22 ?v0) ?v1) f1))))
(assert (forall ((?v0 S2) (?v1 S2)) (= (= (f14 (f15 f22 (f4 f19 ?v0)) (f4 f19 ?v1)) f1) (= (f14 (f15 f22 ?v0) ?v1) f1))))
(assert (= (= (f14 (f15 f22 f20) f20) f1) false))
(assert (forall ((?v0 S2) (?v1 S2)) (= (= (f14 (f15 f22 (f4 f18 ?v0)) (f4 f18 ?v1)) f1) (= (f14 (f15 f22 ?v0) ?v1) f1))))
(assert (forall ((?v0 S2) (?v1 S2)) (= (= (f14 (f15 f22 (f4 f18 ?v0)) (f4 f18 ?v1)) f1) (= (f14 (f15 f22 ?v0) ?v1) f1))))
(assert (forall ((?v0 S2) (?v1 S2)) (= (= (f14 (f15 f22 ?v0) ?v1) f1) (and (= (f14 (f15 f16 ?v0) ?v1) f1) (not (= ?v0 ?v1))))))
(assert (forall ((?v0 S2)) (= (= (f14 (f15 f22 (f4 f17 ?v0)) f23) f1) (= (f14 (f15 f22 ?v0) f20) f1))))
(assert (forall ((?v0 S2)) (= (= (f14 (f15 f22 f23) (f4 f17 ?v0)) f1) (= (f14 (f15 f22 f20) ?v0) f1))))
(assert (= f20 f23))
(assert (forall ((?v0 S2) (?v1 S2)) (= (= (f14 (f15 f22 (f4 f17 ?v0)) (f4 f17 ?v1)) f1) (= (f14 (f15 f22 ?v0) ?v1) f1))))
(assert (forall ((?v0 S2) (?v1 S2) (?v2 S2)) (=> (= (f14 (f15 f22 ?v0) ?v1) f1) (= (f14 (f15 f22 (f4 (f5 f9 ?v0) ?v2)) (f4 (f5 f9 ?v1) ?v2)) f1))))
(assert (not (= f23 f10)))
(assert (forall ((?v0 S2)) (= (f4 (f5 f9 ?v0) f23) ?v0)))
(assert (forall ((?v0 S2)) (= (f4 (f5 f9 f23) ?v0) ?v0)))
(assert (forall ((?v0 S2) (?v1 S2)) (= (= (f14 (f15 f22 f23) (f4 (f5 f9 (f4 (f5 f8 ?v0) ?v0)) (f4 (f5 f8 ?v1) ?v1))) f1) (or (not (= ?v0 f23)) (not (= ?v1 f23))))))
(assert (forall ((?v0 S2) (?v1 S2)) (not (= (f14 (f15 f22 (f4 (f5 f9 (f4 (f5 f8 ?v0) ?v0)) (f4 (f5 f8 ?v1) ?v1))) f23) f1))))
(assert (forall ((?v0 S2)) (= (= (f14 (f15 f16 f10) ?v0) f1) (= (f14 (f15 f22 f23) ?v0) f1))))
(assert (forall ((?v0 S2) (?v1 S2)) (=> (= (f14 (f15 f22 f23) ?v0) f1) (= (= (f4 (f5 f8 ?v0) ?v1) f10) (and (= ?v0 f10) (= ?v1 f10))))))
(assert (forall ((?v0 S2)) (= (= (f14 (f15 f22 (f4 (f5 f9 (f4 (f5 f9 f10) ?v0)) ?v0)) f23) f1) (= (f14 (f15 f22 ?v0) f23) f1))))
(assert (forall ((?v0 S2)) (= (= (f14 (f15 f22 (f4 f21 ?v0)) f10) f1) (= ?v0 f23))))
(assert (forall ((?v0 S2) (?v1 S2)) (= (= (f4 f17 ?v0) (f4 f17 ?v1)) (= ?v0 ?v1))))
(assert (forall ((?v0 S2) (?v1 S2)) (let ((?v_0 (f4 f17 ?v0))) (= (= ?v_0 ?v1) (= ?v1 ?v_0)))))
(assert (forall ((?v0 S2) (?v1 S6)) (let ((?v_0 (f32 f33 ?v0))) (= (= ?v_0 ?v1) (= ?v1 ?v_0)))))
(assert (forall ((?v0 S2) (?v1 S2)) (= (= (f4 f19 ?v0) (f4 f19 ?v1)) (= ?v0 ?v1))))
(assert (= (= f20 f20) true))
(assert (forall ((?v0 S2) (?v1 S2)) (= (= (f4 f18 ?v0) (f4 f18 ?v1)) (= ?v0 ?v1))))
(assert (forall ((?v0 S2) (?v1 S2)) (let ((?v_1 (f4 f17 ?v0)) (?v_0 (f4 f17 ?v1))) (= (= (f14 (f15 f16 ?v_1) ?v_0) f1) (not (= (f14 (f15 f22 ?v_0) ?v_1) f1))))))
(assert (forall ((?v0 S2) (?v1 S2)) (let ((?v_1 (f32 f33 ?v0)) (?v_0 (f32 f33 ?v1))) (= (= (f35 (f36 f37 ?v_1) ?v_0) f1) (not (= (f35 (f36 f38 ?v_0) ?v_1) f1))))))
(assert (forall ((?v0 S2) (?v1 S2)) (=> (= (f14 (f15 f16 ?v0) ?v1) f1) (=> (= (f14 (f15 f16 ?v1) ?v0) f1) (= ?v0 ?v1)))))
(assert (forall ((?v0 S2) (?v1 S2) (?v2 S2)) (let ((?v_0 (f15 f16 ?v0))) (=> (= (f14 ?v_0 ?v1) f1) (=> (= (f14 (f15 f16 ?v1) ?v2) f1) (= (f14 ?v_0 ?v2) f1))))))
(assert (forall ((?v0 S2) (?v1 S2)) (or (= (f14 (f15 f16 ?v0) ?v1) f1) (= (f14 (f15 f16 ?v1) ?v0) f1))))
(assert (forall ((?v0 S2)) (= (f14 (f15 f16 ?v0) ?v0) f1)))
(assert (forall ((?v0 S2) (?v1 S2) (?v2 S2)) (let ((?v_0 (f5 f8 ?v0))) (= (f4 (f5 f8 (f4 ?v_0 ?v1)) ?v2) (f4 ?v_0 (f4 (f5 f8 ?v1) ?v2))))))
(assert (forall ((?v0 S2) (?v1 S2)) (= (f4 (f5 f8 ?v0) ?v1) (f4 (f5 f8 ?v1) ?v0))))
(assert (forall ((?v0 S2)) (= (f4 f17 ?v0) ?v0)))
(assert (forall ((?v0 S2) (?v1 S2) (?v2 S2)) (let ((?v_0 (f5 f9 ?v0))) (= (f4 (f5 f9 (f4 ?v_0 ?v1)) ?v2) (f4 ?v_0 (f4 (f5 f9 ?v1) ?v2))))))
(assert (forall ((?v0 S2) (?v1 S2) (?v2 S2)) (let ((?v_1 (f5 f9 ?v0)) (?v_0 (f5 f9 ?v1))) (= (f4 ?v_1 (f4 ?v_0 ?v2)) (f4 ?v_0 (f4 ?v_1 ?v2))))))
(assert (forall ((?v0 S2) (?v1 S2)) (= (f4 (f5 f9 ?v0) ?v1) (f4 (f5 f9 ?v1) ?v0))))
(assert (forall ((?v0 S2) (?v1 S2)) (= (= (f4 (f5 f9 (f4 (f5 f8 ?v0) ?v0)) (f4 (f5 f8 ?v1) ?v1)) f23) (and (= ?v0 f23) (= ?v1 f23)))))
(assert (forall ((?v0 S2)) (= (= (f14 (f15 f22 (f4 f19 ?v0)) f20) f1) (= (f14 (f15 f22 ?v0) f20) f1))))
(assert (forall ((?v0 S2) (?v1 S2)) (= (= (f14 (f15 f22 (f4 f19 ?v0)) (f4 f18 ?v1)) f1) (= (f14 (f15 f22 ?v0) ?v1) f1))))
(assert (forall ((?v0 S2) (?v1 S2)) (= (= (f14 (f15 f22 (f4 f19 ?v0)) (f4 f18 ?v1)) f1) (= (f14 (f15 f22 ?v0) ?v1) f1))))
(assert (forall ((?v0 S2)) (= (= (f14 (f15 f22 (f4 f18 ?v0)) f20) f1) (= (f14 (f15 f22 ?v0) f20) f1))))
(assert (forall ((?v0 S2)) (let ((?v_0 (f15 f22 f20))) (= (= (f14 ?v_0 (f4 f18 ?v0)) f1) (= (f14 ?v_0 ?v0) f1)))))
(assert (forall ((?v0 S6) (?v1 S6)) (= (= (f11 f12 ?v0) (f11 f12 ?v1)) (= ?v0 ?v1))))
(assert (= (f4 f17 f20) f23))
(assert (= (f32 f33 f20) f39))
(assert (= (f4 f17 f20) f23))
(assert (= f23 (f4 f17 f20)))
(assert (forall ((?v0 S2) (?v1 S2)) (let ((?v_0 (f15 f22 ?v0))) (= (= (f14 ?v_0 (f4 (f5 f9 ?v1) f10)) f1) (or (= (f14 ?v_0 ?v1) f1) (= ?v0 ?v1))))))
(assert (forall ((?v0 S2) (?v1 S2) (?v2 S2) (?v3 S2)) (=> (= (f14 (f15 f22 ?v0) ?v1) f1) (=> (= (f14 (f15 f16 ?v2) ?v3) f1) (= (f14 (f15 f22 (f4 (f5 f9 ?v0) ?v2)) (f4 (f5 f9 ?v1) ?v3)) f1)))))
(assert (= f23 (f4 f17 f20)))
(assert (forall ((?v0 S2)) (not (= (f4 (f5 f9 (f4 (f5 f9 f10) ?v0)) ?v0) f23))))
(assert (forall ((?v0 S2)) (=> (= (f14 (f15 f16 f23) ?v0) f1) (= (f14 (f15 f22 f23) (f4 (f5 f9 f10) ?v0)) f1))))
(assert (forall ((?v0 S6)) (= (f14 (f15 f16 f23) (f11 f12 ?v0)) f1)))
(assert (forall ((?v0 S2)) (= (= (f14 (f15 f22 (f4 f17 ?v0)) f10) f1) (= (f14 (f15 f22 ?v0) (f4 f19 f20)) f1))))
(assert (forall ((?v0 S2)) (= (= (f14 (f15 f22 f10) (f4 f17 ?v0)) f1) (= (f14 (f15 f22 (f4 f19 f20)) ?v0) f1))))
(assert (forall ((?v0 S2)) (let ((?v_0 (f4 f17 ?v0))) (= (f11 f12 (f32 f33 ?v0)) (ite (= (f14 (f15 f16 f23) ?v_0) f1) ?v_0 f23)))))
(assert (forall ((?v0 S2) (?v1 S2)) (= (= (f14 (f15 f16 (f4 (f5 f9 (f4 (f5 f8 ?v0) ?v0)) (f4 (f5 f8 ?v1) ?v1))) f23) f1) (and (= ?v0 f23) (= ?v1 f23)))))
(assert (forall ((?v0 S2) (?v1 S2)) (= (f14 (f15 f16 f23) (f4 (f5 f9 (f4 (f5 f8 ?v0) ?v0)) (f4 (f5 f8 ?v1) ?v1))) f1)))
(assert (forall ((?v0 S2)) (let ((?v_0 (f4 f17 ?v0))) (= (f4 f17 (f4 f18 ?v0)) (f4 (f5 f9 (f4 (f5 f9 f23) ?v_0)) ?v_0)))))
(assert (forall ((?v0 S2)) (= (= (f14 (f15 f16 (f4 f19 ?v0)) f20) f1) (= (f14 (f15 f22 ?v0) f20) f1))))
(assert (forall ((?v0 S2)) (= (= (f14 (f15 f22 f20) (f4 f19 ?v0)) f1) (= (f14 (f15 f16 f20) ?v0) f1))))
(assert (forall ((?v0 S2) (?v1 S2)) (= (= (f14 (f15 f16 (f4 f19 ?v0)) (f4 f18 ?v1)) f1) (= (f14 (f15 f22 ?v0) ?v1) f1))))
(assert (forall ((?v0 S2) (?v1 S2)) (= (= (f14 (f15 f16 (f4 f19 ?v0)) (f4 f18 ?v1)) f1) (= (f14 (f15 f22 ?v0) ?v1) f1))))
(assert (forall ((?v0 S2) (?v1 S2)) (= (= (f14 (f15 f22 (f4 f18 ?v0)) (f4 f19 ?v1)) f1) (= (f14 (f15 f16 ?v0) ?v1) f1))))
(assert (forall ((?v0 S2) (?v1 S2)) (= (= (f14 (f15 f22 (f4 f18 ?v0)) (f4 f19 ?v1)) f1) (= (f14 (f15 f16 ?v0) ?v1) f1))))
(assert (forall ((?v0 S2) (?v1 S2)) (=> (= (f14 (f15 f22 ?v0) ?v1) f1) (= (f14 (f15 f16 (f4 (f5 f9 ?v0) f10)) ?v1) f1))))
(assert (forall ((?v0 S2) (?v1 S2)) (= (= (f14 (f15 f16 (f4 (f5 f9 ?v0) f10)) ?v1) f1) (= (f14 (f15 f22 ?v0) ?v1) f1))))
(assert (forall ((?v0 S2) (?v1 S2)) (= (= (f14 (f15 f22 ?v0) (f4 (f5 f9 ?v1) f10)) f1) (= (f14 (f15 f16 ?v0) ?v1) f1))))
(assert (forall ((?v0 S2) (?v1 S2)) (= (= (f14 (f15 f16 ?v0) (f4 (f5 f6 ?v1) f10)) f1) (= (f14 (f15 f22 ?v0) ?v1) f1))))
(assert (forall ((?v0 S2)) (= (= (f4 f19 ?v0) f20) false)))
(assert (forall ((?v0 S2)) (= (= f20 (f4 f19 ?v0)) false)))
(assert (forall ((?v0 S2) (?v1 S2)) (= (= (f4 f19 ?v0) (f4 f18 ?v1)) false)))
(assert (forall ((?v0 S2) (?v1 S2)) (= (= (f4 f18 ?v0) (f4 f19 ?v1)) false)))
(assert (forall ((?v0 S2)) (= (= (f4 f18 ?v0) f20) (= ?v0 f20))))
(assert (forall ((?v0 S2)) (= (= f20 (f4 f18 ?v0)) (= f20 ?v0))))
(assert (= (f4 f18 f20) f20))
(assert (forall ((?v0 S2) (?v1 S2)) (= (= (f14 (f15 f16 (f4 f19 ?v0)) (f4 f19 ?v1)) f1) (= (f14 (f15 f16 ?v0) ?v1) f1))))
(assert (forall ((?v0 S2) (?v1 S2)) (= (= (f14 (f15 f16 (f4 f19 ?v0)) (f4 f19 ?v1)) f1) (= (f14 (f15 f16 ?v0) ?v1) f1))))
(assert (= (= (f14 (f15 f16 f20) f20) f1) true))
(assert (forall ((?v0 S2) (?v1 S2)) (= (= (f14 (f15 f16 (f4 f18 ?v0)) (f4 f18 ?v1)) f1) (= (f14 (f15 f16 ?v0) ?v1) f1))))
(assert (forall ((?v0 S2) (?v1 S2)) (= (= (f14 (f15 f16 (f4 f18 ?v0)) (f4 f18 ?v1)) f1) (= (f14 (f15 f16 ?v0) ?v1) f1))))
(assert (forall ((?v0 S2)) (= (f4 (f5 f8 f20) ?v0) f20)))
(assert (forall ((?v0 S2) (?v1 S2)) (= (f4 (f5 f8 (f4 f18 ?v0)) ?v1) (f4 f18 (f4 (f5 f8 ?v0) ?v1)))))
(assert (forall ((?v0 S2)) (= (f4 (f5 f9 ?v0) f20) ?v0)))
(assert (forall ((?v0 S2)) (= (f4 (f5 f9 f20) ?v0) ?v0)))
(assert (forall ((?v0 S2) (?v1 S2)) (= (f4 (f5 f9 (f4 f18 ?v0)) (f4 f18 ?v1)) (f4 f18 (f4 (f5 f9 ?v0) ?v1)))))
(assert (forall ((?v0 S2)) (= (f4 f18 ?v0) (f4 (f5 f9 ?v0) ?v0))))
(assert (forall ((?v0 S2)) (= (f4 (f5 f8 ?v0) f10) ?v0)))
(assert (forall ((?v0 S2)) (= (f4 (f5 f8 f10) ?v0) ?v0)))
(assert (forall ((?v0 S2) (?v1 S2)) (= (= (f14 (f15 f16 (f4 f17 ?v0)) (f4 f17 ?v1)) f1) (= (f14 (f15 f16 ?v0) ?v1) f1))))
(assert (forall ((?v0 S2) (?v1 S2)) (= (f4 (f5 f8 (f4 f17 ?v0)) (f4 f17 ?v1)) (f4 f17 (f4 (f5 f8 ?v0) ?v1)))))
(assert (forall ((?v0 S2) (?v1 S2) (?v2 S2)) (let ((?v_0 (f5 f9 ?v2))) (=> (= (f14 (f15 f16 ?v0) ?v1) f1) (= (f14 (f15 f16 (f4 ?v_0 ?v0)) (f4 ?v_0 ?v1)) f1)))))
(assert (forall ((?v0 S2)) (= (f4 (f5 f6 ?v0) f20) ?v0)))
(assert (forall ((?v0 S2) (?v1 S2)) (= (f4 (f5 f6 (f4 f18 ?v0)) (f4 f18 ?v1)) (f4 f18 (f4 (f5 f6 ?v0) ?v1)))))
(assert (forall ((?v0 S2) (?v1 S2) (?v2 S2)) (= (f4 (f5 f8 (f4 (f5 f9 ?v0) ?v1)) ?v2) (f4 (f5 f9 (f4 (f5 f8 ?v0) ?v2)) (f4 (f5 f8 ?v1) ?v2)))))
(assert (forall ((?v0 S2) (?v1 S2) (?v2 S2)) (let ((?v_0 (f5 f8 ?v0))) (= (f4 ?v_0 (f4 (f5 f9 ?v1) ?v2)) (f4 (f5 f9 (f4 ?v_0 ?v1)) (f4 ?v_0 ?v2))))))
(assert (forall ((?v0 S2) (?v1 S2)) (= (f4 (f5 f9 (f4 f17 ?v0)) (f4 f17 ?v1)) (f4 f17 (f4 (f5 f9 ?v0) ?v1)))))
(assert (forall ((?v0 S2) (?v1 S2) (?v2 S2)) (= (f4 (f5 f8 (f4 (f5 f6 ?v0) ?v1)) ?v2) (f4 (f5 f6 (f4 (f5 f8 ?v0) ?v2)) (f4 (f5 f8 ?v1) ?v2)))))
(assert (forall ((?v0 S2) (?v1 S2) (?v2 S2)) (let ((?v_0 (f5 f8 ?v0))) (= (f4 ?v_0 (f4 (f5 f6 ?v1) ?v2)) (f4 (f5 f6 (f4 ?v_0 ?v1)) (f4 ?v_0 ?v2))))))
(assert (forall ((?v0 S2)) (= (= (f14 (f15 f16 (f4 f17 ?v0)) f23) f1) (= (f14 (f15 f16 ?v0) f20) f1))))
(assert (forall ((?v0 S2)) (= (= (f14 (f15 f16 f23) (f4 f17 ?v0)) f1) (= (f14 (f15 f16 f20) ?v0) f1))))
(assert (forall ((?v0 S6)) (let ((?v_0 (f11 f12 ?v0))) (= (f4 f21 ?v_0) ?v_0))))
(assert (forall ((?v0 S2) (?v1 S2) (?v2 S2)) (let ((?v_0 (f4 f17 ?v2))) (= (f4 (f5 f8 (f4 (f5 f9 ?v0) ?v1)) ?v_0) (f4 (f5 f9 (f4 (f5 f8 ?v0) ?v_0)) (f4 (f5 f8 ?v1) ?v_0))))))
(assert (forall ((?v0 S6) (?v1 S6) (?v2 S2)) (let ((?v_0 (f32 f33 ?v2))) (= (f28 (f29 f34 (f28 (f29 f30 ?v0) ?v1)) ?v_0) (f28 (f29 f30 (f28 (f29 f34 ?v0) ?v_0)) (f28 (f29 f34 ?v1) ?v_0))))))
(assert (forall ((?v0 S2) (?v1 S2) (?v2 S2)) (let ((?v_0 (f5 f8 (f4 f17 ?v0)))) (= (f4 ?v_0 (f4 (f5 f9 ?v1) ?v2)) (f4 (f5 f9 (f4 ?v_0 ?v1)) (f4 ?v_0 ?v2))))))
(assert (forall ((?v0 S2) (?v1 S6) (?v2 S6)) (let ((?v_0 (f29 f34 (f32 f33 ?v0)))) (= (f28 ?v_0 (f28 (f29 f30 ?v1) ?v2)) (f28 (f29 f30 (f28 ?v_0 ?v1)) (f28 ?v_0 ?v2))))))
(assert (forall ((?v0 S2) (?v1 S2) (?v2 S2)) (let ((?v_0 (f4 f17 ?v2))) (= (f4 (f5 f8 (f4 (f5 f6 ?v0) ?v1)) ?v_0) (f4 (f5 f6 (f4 (f5 f8 ?v0) ?v_0)) (f4 (f5 f8 ?v1) ?v_0))))))
(assert (forall ((?v0 S2) (?v1 S2) (?v2 S2)) (let ((?v_0 (f5 f8 (f4 f17 ?v0)))) (= (f4 ?v_0 (f4 (f5 f6 ?v1) ?v2)) (f4 (f5 f6 (f4 ?v_0 ?v1)) (f4 ?v_0 ?v2))))))
(assert (forall ((?v0 S2)) (= (f4 (f5 f9 (f4 f17 f20)) ?v0) ?v0)))
(assert (forall ((?v0 S2)) (= (f4 (f5 f9 ?v0) (f4 f17 f20)) ?v0)))
(assert (forall ((?v0 S2) (?v1 S2)) (= (= (f14 (f15 f16 (f4 f17 ?v0)) (f4 f17 ?v1)) f1) (= (f14 (f15 f16 ?v0) ?v1) f1))))
(assert (forall ((?v0 S2) (?v1 S2) (?v2 S2)) (= (f4 (f5 f8 (f4 f17 ?v0)) (f4 (f5 f8 (f4 f17 ?v1)) ?v2)) (f4 (f5 f8 (f4 f17 (f4 (f5 f8 ?v0) ?v1))) ?v2))))
(assert (forall ((?v0 S2) (?v1 S2)) (= (f4 (f5 f8 (f4 f17 ?v0)) (f4 f17 ?v1)) (f4 f17 (f4 (f5 f8 ?v0) ?v1)))))
(assert (forall ((?v0 S2) (?v1 S2)) (= (f4 f17 (f4 (f5 f8 ?v0) ?v1)) (f4 (f5 f8 (f4 f17 ?v0)) (f4 f17 ?v1)))))
(assert (forall ((?v0 S2) (?v1 S2)) (= (f4 f17 (f4 (f5 f9 ?v0) ?v1)) (f4 (f5 f9 (f4 f17 ?v0)) (f4 f17 ?v1)))))
(assert (forall ((?v0 S2) (?v1 S2) (?v2 S2)) (= (f4 (f5 f9 (f4 f17 ?v0)) (f4 (f5 f9 (f4 f17 ?v1)) ?v2)) (f4 (f5 f9 (f4 f17 (f4 (f5 f9 ?v0) ?v1))) ?v2))))
(assert (forall ((?v0 S2) (?v1 S2)) (= (f4 (f5 f9 (f4 f17 ?v0)) (f4 f17 ?v1)) (f4 f17 (f4 (f5 f9 ?v0) ?v1)))))
(assert (forall ((?v0 S2)) (let ((?v_0 (f15 f16 f20))) (= (= (f14 ?v_0 (f4 f19 ?v0)) f1) (= (f14 ?v_0 ?v0) f1)))))
(assert (forall ((?v0 S2) (?v1 S2)) (= (= (f14 (f15 f16 (f4 f18 ?v0)) (f4 f19 ?v1)) f1) (= (f14 (f15 f16 ?v0) ?v1) f1))))
(assert (forall ((?v0 S2) (?v1 S2)) (= (= (f14 (f15 f16 (f4 f18 ?v0)) (f4 f19 ?v1)) f1) (= (f14 (f15 f16 ?v0) ?v1) f1))))
(assert (forall ((?v0 S2)) (= (= (f14 (f15 f16 (f4 f18 ?v0)) f20) f1) (= (f14 (f15 f16 ?v0) f20) f1))))
(assert (forall ((?v0 S2)) (let ((?v_0 (f15 f16 f20))) (= (= (f14 ?v_0 (f4 f18 ?v0)) f1) (= (f14 ?v_0 ?v0) f1)))))
(assert (forall ((?v0 S2) (?v1 S2)) (= (f4 f17 (f4 (f5 f6 ?v0) ?v1)) (f4 (f5 f6 (f4 f17 ?v0)) (f4 f17 ?v1)))))
(assert (forall ((?v0 S2) (?v1 S2)) (= (f4 (f5 f9 (f4 f19 ?v0)) (f4 f18 ?v1)) (f4 f19 (f4 (f5 f9 ?v0) ?v1)))))
(assert (forall ((?v0 S2) (?v1 S2)) (= (f4 (f5 f9 (f4 f18 ?v0)) (f4 f19 ?v1)) (f4 f19 (f4 (f5 f9 ?v0) ?v1)))))
(assert (forall ((?v0 S2)) (= (f4 f19 ?v0) (f4 (f5 f9 (f4 (f5 f9 f10) ?v0)) ?v0))))
(assert (forall ((?v0 S2) (?v1 S2)) (= (f4 (f5 f6 (f4 f19 ?v0)) (f4 f19 ?v1)) (f4 f18 (f4 (f5 f6 ?v0) ?v1)))))
(assert (forall ((?v0 S2) (?v1 S2)) (= (f4 (f5 f6 (f4 f19 ?v0)) (f4 f18 ?v1)) (f4 f19 (f4 (f5 f6 ?v0) ?v1)))))
(assert (forall ((?v0 S2)) (let ((?v_0 (f5 f6 f20))) (= (f4 ?v_0 (f4 f18 ?v0)) (f4 f18 (f4 ?v_0 ?v0))))))
(assert (forall ((?v0 S6)) (let ((?v_0 (f11 f12 ?v0))) (= (f4 f17 ?v_0) ?v_0))))
(assert (forall ((?v0 S6)) (= (f32 f33 (f11 f12 ?v0)) (f28 f40 ?v0))))
(assert (forall ((?v0 S2) (?v1 S2)) (= (= (f14 (f15 f16 ?v0) ?v1) f1) (exists ((?v2 S6)) (= ?v1 (f4 (f5 f9 ?v0) (f11 f12 ?v2)))))))
(assert (forall ((?v0 S2) (?v1 S2)) (=> (= (f4 f21 (f4 (f5 f8 ?v0) ?v1)) f10) (= (f4 f21 ?v0) f10))))
(assert (forall ((?v0 S2)) (let ((?v_0 (f4 f17 ?v0))) (= (f4 f17 (f4 f19 ?v0)) (f4 (f5 f9 (f4 (f5 f9 f10) ?v_0)) ?v_0)))))
(assert (forall ((?v0 S2)) (= (f4 (f5 f8 (f4 f17 (f4 f19 f20))) ?v0) ?v0)))
(assert (forall ((?v0 S2)) (= (f4 (f5 f8 ?v0) (f4 f17 (f4 f19 f20))) ?v0)))
(assert (= (f4 f17 (f4 f19 f20)) f10))
(assert (= (f32 f33 (f4 f19 f20)) f31))
(assert (= (f4 f17 (f4 f19 f20)) f10))
(assert (= f10 (f4 f17 (f4 f19 f20))))
(assert (forall ((?v0 S2) (?v1 S2) (?v2 S2)) (= (f4 (f5 f9 (f4 f17 ?v0)) (f4 (f5 f6 (f4 f17 ?v1)) ?v2)) (f4 (f5 f6 (f4 f17 (f4 (f5 f9 ?v0) ?v1))) ?v2))))
(assert (= f10 (f4 f17 (f4 f19 f20))))
(assert (forall ((?v0 S2) (?v1 S2)) (= (f4 (f5 f8 (f4 f19 ?v0)) ?v1) (f4 (f5 f9 (f4 f18 (f4 (f5 f8 ?v0) ?v1))) ?v1))))
(assert (forall ((?v0 S2)) (= (f4 (f5 f8 (f4 (f5 f9 f10) f10)) (f4 f17 ?v0)) (f4 f17 (f4 f18 ?v0)))))
(assert (forall ((?v0 S2) (?v1 S2)) (let ((?v_0 (f15 f16 f20))) (=> (= (f14 ?v_0 ?v0) f1) (=> (= (f14 ?v_0 ?v1) f1) (= (f4 (f5 f8 (f4 f17 ?v0)) (f4 f17 ?v1)) (f4 f17 (f4 (f5 f8 ?v0) ?v1))))))))
(assert (forall ((?v0 S2) (?v1 S2)) (let ((?v_0 (f15 f16 f20))) (=> (= (f14 ?v_0 ?v0) f1) (=> (= (f14 ?v_0 ?v1) f1) (= (f28 (f29 f34 (f32 f33 ?v0)) (f32 f33 ?v1)) (f32 f33 (f4 (f5 f8 ?v0) ?v1))))))))
(assert (forall ((?v0 S2)) (=> (= (f14 (f15 f16 f23) ?v0) f1) (=> (= (f14 (f15 f22 ?v0) (f4 f17 (f4 f18 (f4 f19 f20)))) f1) (or (= ?v0 f23) (= ?v0 f10))))))
(assert (forall ((?v0 S2) (?v1 S2) (?v2 S2)) (let ((?v_0 (f5 f6 ?v1))) (=> (= (f14 (f15 f22 f23) ?v0) f1) (= (f14 (f15 f22 (f4 ?v_0 (f4 (f5 f8 (f4 (f5 f9 (f4 f21 (f4 ?v_0 ?v2))) f10)) ?v0))) ?v2) f1)))))
(assert (forall ((?v0 S2) (?v1 S2) (?v2 S2)) (=> (= (f14 (f15 f22 f23) ?v0) f1) (= (f14 (f15 f22 ?v1) (f4 (f5 f9 ?v2) (f4 (f5 f8 (f4 (f5 f9 (f4 f21 (f4 (f5 f6 ?v2) ?v1))) f10)) ?v0))) f1))))
(assert (forall ((?v0 S2) (?v1 S2) (?v2 S2)) (=> (= (f14 (f15 f22 f23) ?v0) f1) (=> (= ?v0 (f4 (f5 f9 ?v1) (f4 (f5 f8 ?v0) ?v2))) (=> (= (f14 (f15 f22 ?v1) ?v0) f1) (= (f14 (f15 f16 f10) ?v2) f1))))))
(assert (forall ((?v0 S2) (?v1 S2) (?v2 S2)) (=> (= (f14 (f15 f22 f23) ?v0) f1) (=> (= ?v0 (f4 (f5 f9 ?v1) (f4 (f5 f8 ?v0) ?v2))) (=> (= (f14 (f15 f16 f23) ?v1) f1) (= (f14 (f15 f16 ?v2) f10) f1))))))
(assert (let ((?v_1 (f4 (f5 f9 f10) (f11 f12 f13))) (?v_0 (f4 (f5 f9 (f4 (f5 f8 (f4 f17 (f4 f18 (f4 f18 (f4 f19 f20))))) f41)) f10))) (not (=> (= (f14 (f15 f22 ?v_1) ?v_0) f1) (not (= (f14 f42 (f4 (f5 f8 ?v_0) ?v_1)) f1))))))
(assert (= (f14 (f15 f16 f23) (f4 f17 (f4 f18 (f4 f19 f20)))) f1))
(assert (forall ((?v0 S2) (?v1 S2) (?v2 S2) (?v3 S2) (?v4 S2)) (let ((?v_0 (f15 f16 f23))) (=> (= (f14 (f15 f22 ?v0) ?v1) f1) (=> (= (f14 (f15 f22 ?v2) ?v1) f1) (=> (= (f14 ?v_0 ?v3) f1) (=> (= (f14 ?v_0 ?v4) f1) (=> (= (f4 (f5 f9 ?v3) ?v4) f10) (= (f14 (f15 f22 (f4 (f5 f9 (f4 (f5 f8 ?v3) ?v0)) (f4 (f5 f8 ?v4) ?v2))) ?v1) f1)))))))))
(assert (forall ((?v0 S2) (?v1 S2)) (=> (= (f14 (f15 f22 f23) ?v0) f1) (exists ((?v2 S2)) (= (f14 (f15 f16 (f4 (f5 f8 (f4 f17 (f4 f18 (f4 f19 f20)))) (f4 f21 (f4 (f5 f6 ?v1) (f4 (f5 f8 ?v2) ?v0))))) ?v0) f1)))))
(assert (forall ((?v0 S2) (?v1 S2) (?v2 S2) (?v3 S2) (?v4 S2) (?v5 S2)) (let ((?v_0 (f4 (f5 f9 (f4 (f5 f8 ?v3) ?v4)) ?v5))) (=> (= (f4 (f5 f9 (f4 (f5 f8 ?v0) ?v1)) ?v2) ?v_0) (=> (= (f14 (f15 f22 ?v_0) f23) f1) (=> (= (f14 (f15 f22 ?v2) ?v0) f1) (=> (= (f14 (f15 f16 f23) ?v5) f1) (=> (= (f14 (f15 f22 f23) ?v3) f1) (=> (= (f14 (f15 f16 ?v3) ?v0) f1) (= (f14 (f15 f16 ?v4) ?v1) f1))))))))))
(assert (= (f35 (f36 f38 f39) f13) f1))
(assert (not (= (f14 f42 (f4 (f5 f8 (f4 (f5 f9 (f4 (f5 f8 (f4 f17 (f4 f18 (f4 f18 (f4 f19 f20))))) f41)) f10)) (f4 (f5 f9 f10) (f11 f12 f39)))) f1)))
(assert (= (f14 (f15 f22 f23) (f4 (f5 f9 (f4 (f5 f8 (f4 f17 (f4 f18 (f4 f18 (f4 f19 f20))))) f41)) f10)) f1))
(assert (= (f14 (f15 f22 f24) (f4 (f5 f9 (f4 (f5 f8 (f4 f17 (f4 f18 (f4 f18 (f4 f19 f20))))) f41)) f10)) f1))
(assert (= (f14 f42 (f4 (f5 f8 (f4 (f5 f9 (f4 (f5 f8 (f4 f17 (f4 f18 (f4 f18 (f4 f19 f20))))) f41)) f10)) f24)) f1))
(assert (let ((?v_1 (f4 (f5 f9 f10) (f11 f12 f13))) (?v_0 (f4 (f5 f9 (f4 (f5 f8 (f4 f17 (f4 f18 (f4 f18 (f4 f19 f20))))) f41)) f10))) (and (= (f14 (f15 f22 ?v_1) ?v_0) f1) (= (f14 f42 (f4 (f5 f8 ?v_0) ?v_1)) f1))))
(assert (= (f14 f43 (f4 (f5 f9 (f4 (f5 f8 (f4 f17 (f4 f18 (f4 f18 (f4 f19 f20))))) f41)) f10)) f1))
(assert (let ((?v_1 (f4 f18 (f4 f19 f20)))) (let ((?v_0 (f32 f33 ?v_1))) (= (f4 (f5 f9 (f11 (f44 f45 f26) ?v_0)) (f11 (f44 f45 f7) ?v_0)) (f4 (f5 f8 (f4 (f5 f9 (f4 (f5 f8 (f4 f17 (f4 f18 ?v_1))) f41)) f10)) (f4 (f5 f9 f10) (f11 f12 f13)))))))
(assert (forall ((?v0 S6) (?v1 S6)) (= (f28 (f29 f34 ?v0) ?v1) (ite (= ?v0 f39) f39 (f28 (f29 f30 ?v1) (f28 (f29 f34 (f28 (f29 f46 ?v0) f31)) ?v1))))))
(assert (forall ((?v0 S2)) (= (= (f35 (f36 f38 f39) (f32 f33 ?v0)) f1) (= (f14 (f15 f22 f20) ?v0) f1))))
(assert (forall ((?v0 S7) (?v1 S6) (?v2 S6)) (= (= (f14 ?v0 (f11 f12 (f28 (f29 f46 ?v1) ?v2))) f1) (and (=> (= (f35 (f36 f37 ?v2) ?v1) f1) (= (f14 ?v0 (f4 (f5 f6 (f11 f12 ?v1)) (f11 f12 ?v2))) f1)) (=> (= (f35 (f36 f38 ?v1) ?v2) f1) (= (f14 ?v0 f23) f1))))))
(assert (= (f32 f33 f20) f39))
(assert (= f39 (f32 f33 f20)))
(assert (forall ((?v0 S6) (?v1 S6)) (= (= (f14 (f15 f22 (f11 f12 ?v0)) (f11 f12 ?v1)) f1) (= (f35 (f36 f38 ?v0) ?v1) f1))))
(assert (= f23 (f11 f12 f39)))
(assert (forall ((?v0 S6)) (= (= (f14 (f15 f22 f23) (f11 f12 ?v0)) f1) (= (f35 (f36 f38 f39) ?v0) f1))))
(assert (forall ((?v0 S2) (?v1 S2) (?v2 S6)) (let ((?v_0 (f5 f8 (f11 f12 ?v2)))) (=> (= (f14 (f15 f22 ?v0) ?v1) f1) (=> (= (f35 (f36 f38 f39) ?v2) f1) (= (f14 (f15 f22 (f4 ?v_0 ?v0)) (f4 ?v_0 ?v1)) f1))))))
(assert (forall ((?v0 S2) (?v1 S2)) (= (= (f35 (f36 f38 (f32 f33 ?v0)) (f32 f33 ?v1)) f1) (ite (= (f14 (f15 f22 ?v0) ?v1) f1) (= (f14 (f15 f22 f20) ?v1) f1) false))))
(assert (forall ((?v0 S6) (?v1 S6)) (=> (= (f35 (f36 f37 ?v0) ?v1) f1) (= (f4 (f5 f6 (f11 f12 ?v1)) (f11 f12 ?v0)) (f11 f12 (f28 (f29 f46 ?v1) ?v0))))))
(assert (forall ((?v0 S6) (?v1 S6)) (= (= (f14 (f15 f22 (f11 f12 ?v0)) (f11 f12 ?v1)) f1) (= (f35 (f36 f38 ?v0) ?v1) f1))))
(assert (forall ((?v0 S2)) (= (= f39 (f32 f33 ?v0)) (= (f14 (f15 f16 ?v0) f20) f1))))
(assert (forall ((?v0 S2)) (= (= (f32 f33 ?v0) f39) (= (f14 (f15 f16 ?v0) f20) f1))))
(assert (= (f11 f12 f39) f23))
(assert (forall ((?v0 S6)) (= (= (f11 f12 ?v0) f23) (= ?v0 f39))))
(assert (forall ((?v0 S2) (?v1 S2)) (=> (= (f14 f42 ?v0) f1) (=> (= (f14 f42 ?v1) f1) (= (f14 f42 (f4 (f5 f8 ?v0) ?v1)) f1)))))
(assert (forall ((?v0 S2) (?v1 S2)) (=> (not (= ?v0 ?v1)) (=> (=> (= (f14 (f15 f22 ?v0) ?v1) f1) false) (=> (=> (= (f14 (f15 f22 ?v1) ?v0) f1) false) false)))))
(assert (forall ((?v0 S2) (?v1 S2)) (= (f28 (f29 f34 (f32 f33 ?v0)) (f32 f33 ?v1)) (ite (= (f14 (f15 f22 ?v0) f20) f1) f39 (f32 f33 (f4 (f5 f8 ?v0) ?v1))))))
(assert (forall ((?v0 S2) (?v1 S2) (?v2 S6)) (= (f28 (f29 f34 (f32 f33 ?v0)) (f28 (f29 f34 (f32 f33 ?v1)) ?v2)) (ite (= (f14 (f15 f22 ?v0) f20) f1) f39 (f28 (f29 f34 (f32 f33 (f4 (f5 f8 ?v0) ?v1))) ?v2)))))
(assert (forall ((?v0 S6)) (= (= (f14 (f15 f16 (f11 f12 ?v0)) f23) f1) (= ?v0 f39))))
(assert (forall ((?v0 S6) (?v1 S6)) (= (= (f11 f12 ?v0) (f11 f12 ?v1)) (= ?v0 ?v1))))
(assert (forall ((?v0 S1) (?v1 S6) (?v2 S6)) (let ((?v_0 (= ?v0 f1))) (= (ite ?v_0 (f11 f12 ?v1) (f11 f12 ?v2)) (f11 f12 (ite ?v_0 ?v1 ?v2))))))
(assert (forall ((?v0 S2)) (= (f4 (f5 f8 f23) ?v0) f23)))
(assert (forall ((?v0 S6)) (= (f28 (f29 f34 f39) ?v0) f39)))
(assert (forall ((?v0 S2)) (= (f4 (f5 f8 ?v0) f23) f23)))
(assert (forall ((?v0 S6)) (= (f28 (f29 f34 ?v0) f39) f39)))
(assert (forall ((?v0 S2) (?v1 S2)) (= (= (f4 (f5 f8 ?v0) ?v1) f23) (or (= ?v0 f23) (= ?v1 f23)))))
(assert (forall ((?v0 S2) (?v1 S2)) (=> (not (= ?v0 f23)) (=> (not (= ?v1 f23)) (not (= (f4 (f5 f8 ?v0) ?v1) f23))))))
(assert (forall ((?v0 S6) (?v1 S6)) (=> (not (= ?v0 f39)) (=> (not (= ?v1 f39)) (not (= (f28 (f29 f34 ?v0) ?v1) f39))))))
(assert (forall ((?v0 S2) (?v1 S2)) (=> (= (f4 (f5 f8 ?v0) ?v1) f23) (or (= ?v0 f23) (= ?v1 f23)))))
(assert (forall ((?v0 S6) (?v1 S6)) (=> (= (f28 (f29 f34 ?v0) ?v1) f39) (or (= ?v0 f39) (= ?v1 f39)))))
(assert (not (= f10 f23)))
(assert (not (= f31 f39)))
(assert (not (= f23 f10)))
(assert (not (= f39 f31)))
(assert (forall ((?v0 S2) (?v1 S2) (?v2 S2)) (= (f4 (f5 f8 (f4 (f5 f9 ?v0) ?v1)) ?v2) (f4 (f5 f9 (f4 (f5 f8 ?v0) ?v2)) (f4 (f5 f8 ?v1) ?v2)))))
(assert (forall ((?v0 S6) (?v1 S6) (?v2 S6)) (= (f28 (f29 f34 (f28 (f29 f30 ?v0) ?v1)) ?v2) (f28 (f29 f30 (f28 (f29 f34 ?v0) ?v2)) (f28 (f29 f34 ?v1) ?v2)))))
(assert (forall ((?v0 S2) (?v1 S2) (?v2 S2) (?v3 S2)) (= (f4 (f5 f9 (f4 (f5 f8 ?v0) ?v1)) (f4 (f5 f9 (f4 (f5 f8 ?v2) ?v1)) ?v3)) (f4 (f5 f9 (f4 (f5 f8 (f4 (f5 f9 ?v0) ?v2)) ?v1)) ?v3))))
(assert (forall ((?v0 S6) (?v1 S6) (?v2 S6) (?v3 S6)) (= (f28 (f29 f30 (f28 (f29 f34 ?v0) ?v1)) (f28 (f29 f30 (f28 (f29 f34 ?v2) ?v1)) ?v3)) (f28 (f29 f30 (f28 (f29 f34 (f28 (f29 f30 ?v0) ?v2)) ?v1)) ?v3))))
(assert (forall ((?v0 S2) (?v1 S2)) (= (f4 f21 (f4 (f5 f8 ?v0) ?v1)) (f4 (f5 f8 (f4 f21 ?v0)) (f4 f21 ?v1)))))
(assert (forall ((?v0 S2)) (let ((?v_0 (f4 f21 ?v0))) (= (f4 (f5 f8 ?v_0) ?v_0) (f4 (f5 f8 ?v0) ?v0)))))
(assert (= (f4 f21 f10) f10))
(assert (= (f14 (f15 f16 f23) f23) f1))
(assert (forall ((?v0 S2) (?v1 S1) (?v2 S1)) (let ((?v_0 (= (f14 (f15 f16 f23) ?v0) f1)) (?v_1 (= ?v1 f1)) (?v_2 (= ?v2 f1))) (=> (=> ?v_0 (= ?v_1 ?v_2)) (= (and ?v_0 ?v_1) (and ?v_0 ?v_2))))))
(assert (forall ((?v0 S2) (?v1 S1) (?v2 S1)) (let ((?v_0 (= (f14 (f15 f16 f23) ?v0) f1)) (?v_1 (= ?v1 f1)) (?v_2 (= ?v2 f1))) (=> (=> ?v_0 (= ?v_1 ?v_2)) (= (=> ?v_0 ?v_1) (=> ?v_0 ?v_2))))))
(assert (= f10 (f11 f12 f31)))
(assert (forall ((?v0 S6) (?v1 S6)) (= (= (f14 (f15 f16 (f11 f12 ?v0)) (f11 f12 ?v1)) f1) (= (f35 (f36 f37 ?v0) ?v1) f1))))
(assert (forall ((?v0 S6) (?v1 S6)) (= (f4 (f5 f8 (f11 f12 ?v0)) (f11 f12 ?v1)) (f11 f12 (f28 (f29 f34 ?v0) ?v1)))))
(assert (forall ((?v0 S6) (?v1 S6)) (= (f4 (f5 f9 (f11 f12 ?v0)) (f11 f12 ?v1)) (f11 f12 (f28 (f29 f30 ?v0) ?v1)))))
(assert (forall ((?v0 S2)) (= (f14 (f15 f16 f23) (f4 (f5 f8 ?v0) ?v0)) f1)))
(assert (forall ((?v0 S2) (?v1 S2)) (let ((?v_0 (f15 f16 f23))) (= (= (f14 ?v_0 (f4 (f5 f8 ?v0) ?v1)) f1) (or (and (= (f14 ?v_0 ?v0) f1) (= (f14 ?v_0 ?v1) f1)) (and (= (f14 (f15 f16 ?v0) f23) f1) (= (f14 (f15 f16 ?v1) f23) f1)))))))
(assert (forall ((?v0 S2) (?v1 S2)) (let ((?v_0 (f15 f16 f23))) (= (= (f14 (f15 f16 (f4 (f5 f8 ?v0) ?v1)) f23) f1) (or (and (= (f14 ?v_0 ?v0) f1) (= (f14 (f15 f16 ?v1) f23) f1)) (and (= (f14 (f15 f16 ?v0) f23) f1) (= (f14 ?v_0 ?v1) f1)))))))
(assert (forall ((?v0 S2) (?v1 S2)) (let ((?v_0 (f15 f16 f23))) (=> (= (f14 ?v_0 ?v0) f1) (=> (= (f14 ?v_0 ?v1) f1) (= (f14 ?v_0 (f4 (f5 f8 ?v0) ?v1)) f1))))))
(assert (forall ((?v0 S6) (?v1 S6)) (let ((?v_0 (f36 f37 f39))) (=> (= (f35 ?v_0 ?v0) f1) (=> (= (f35 ?v_0 ?v1) f1) (= (f35 ?v_0 (f28 (f29 f34 ?v0) ?v1)) f1))))))
(assert (forall ((?v0 S2) (?v1 S2)) (=> (= (f14 (f15 f16 f23) ?v0) f1) (=> (= (f14 (f15 f16 ?v1) f23) f1) (= (f14 (f15 f16 (f4 (f5 f8 ?v0) ?v1)) f23) f1)))))
(assert (forall ((?v0 S6) (?v1 S6)) (=> (= (f35 (f36 f37 f39) ?v0) f1) (=> (= (f35 (f36 f37 ?v1) f39) f1) (= (f35 (f36 f37 (f28 (f29 f34 ?v0) ?v1)) f39) f1)))))
(assert (forall ((?v0 S2) (?v1 S2)) (=> (= (f14 (f15 f16 f23) ?v0) f1) (=> (= (f14 (f15 f16 ?v1) f23) f1) (= (f14 (f15 f16 (f4 (f5 f8 ?v1) ?v0)) f23) f1)))))
(assert (forall ((?v0 S6) (?v1 S6)) (=> (= (f35 (f36 f37 f39) ?v0) f1) (=> (= (f35 (f36 f37 ?v1) f39) f1) (= (f35 (f36 f37 (f28 (f29 f34 ?v1) ?v0)) f39) f1)))))
(assert (forall ((?v0 S2) (?v1 S2)) (=> (= (f14 (f15 f16 ?v0) f23) f1) (=> (= (f14 (f15 f16 f23) ?v1) f1) (= (f14 (f15 f16 (f4 (f5 f8 ?v0) ?v1)) f23) f1)))))
(assert (forall ((?v0 S6) (?v1 S6)) (=> (= (f35 (f36 f37 ?v0) f39) f1) (=> (= (f35 (f36 f37 f39) ?v1) f1) (= (f35 (f36 f37 (f28 (f29 f34 ?v0) ?v1)) f39) f1)))))
(assert (forall ((?v0 S2) (?v1 S2)) (=> (= (f14 (f15 f16 ?v0) f23) f1) (=> (= (f14 (f15 f16 ?v1) f23) f1) (= (f14 (f15 f16 f23) (f4 (f5 f8 ?v0) ?v1)) f1)))))
(assert (forall ((?v0 S2) (?v1 S2) (?v2 S2)) (=> (= (f14 (f15 f16 ?v0) ?v1) f1) (=> (= (f14 (f15 f16 f23) ?v2) f1) (= (f14 (f15 f16 (f4 (f5 f8 ?v0) ?v2)) (f4 (f5 f8 ?v1) ?v2)) f1)))))
(assert (forall ((?v0 S6) (?v1 S6) (?v2 S6)) (=> (= (f35 (f36 f37 ?v0) ?v1) f1) (=> (= (f35 (f36 f37 f39) ?v2) f1) (= (f35 (f36 f37 (f28 (f29 f34 ?v0) ?v2)) (f28 (f29 f34 ?v1) ?v2)) f1)))))
(assert (forall ((?v0 S2) (?v1 S2) (?v2 S2)) (let ((?v_0 (f5 f8 ?v2))) (=> (= (f14 (f15 f16 ?v0) ?v1) f1) (=> (= (f14 (f15 f16 f23) ?v2) f1) (= (f14 (f15 f16 (f4 ?v_0 ?v0)) (f4 ?v_0 ?v1)) f1))))))
(assert (forall ((?v0 S6) (?v1 S6) (?v2 S6)) (let ((?v_0 (f29 f34 ?v2))) (=> (= (f35 (f36 f37 ?v0) ?v1) f1) (=> (= (f35 (f36 f37 f39) ?v2) f1) (= (f35 (f36 f37 (f28 ?v_0 ?v0)) (f28 ?v_0 ?v1)) f1))))))
(check-sat)
(exit)
